20
105
7
58
40
81
86
77
37
97
0 2
0 3
0 4
0 8
0 10
0 13
0 15
0 18
0 19
1 4
1 7
1 9
1 10
1 11
1 13
1 14
1 15
1 17
1 18
1 19
2 4
2 5
2 6
2 7
2 8
2 12
2 13
2 17
2 19
3 4
3 5
3 7
3 8
3 11
3 12
3 13
3 15
3 16
3 17
3 18
3 19
4 5
4 6
4 7
4 8
4 9
4 11
4 13
4 19
5 7
5 8
5 9
5 10
5 11
5 13
5 14
5 18
5 19
6 7
6 9
6 11
6 15
6 17
6 18
6 19
7 9
7 11
7 12
7 14
7 15
7 16
8 9
8 10
8 11
8 12
8 13
8 14
8 17
8 19
9 12
9 14
9 16
9 17
9 18
9 19
10 12
10 13
10 15
10 16
10 17
10 18
10 19
11 14
11 19
12 14
12 15
12 16
12 17
12 18
12 19
13 15
14 15
14 16
15 16
15 18
17 12 16
10 3 18
9 4 6
13 1 0
11 15 5
19 2 14
7 8
